NAME 
ROWS
 N  OBJ
 L  R0      
 L  R1      
 L  R2      
 E  R3      
 E  R4      
 E  R5      
 E  R6      
 E  R7      
 E  R8      
 E  R9      
 E  R10     
 E  R11     
 E  R12     
 E  R13     
 E  R14     
 E  R15     
 E  R16     
 E  R17     
COLUMNS
    MARKER    'MARKER'                 'INTORG'
    I0(7)     OBJ       -11
    I0(7)     R0        -186
    I0(7)     R1        -65
    I0(7)     R2        104
    I0(7)     R3        7
    I0(7)     R6        7
    I0(7)     R8        -1
    I0(7)     R17       1
    I1(5)     OBJ       -146
    I1(5)     R0        -179
    I1(5)     R1        -143
    I1(5)     R2        -38
    I1(5)     R8        3
    I1(5)     R17       1
    I2(7)     OBJ       53
    I2(7)     R0        -194
    I2(7)     R1        -88
    I2(7)     R2        -183
    I2(7)     R3        9
    I2(7)     R6        7
    I2(7)     R7        -1
    I2(7)     R17       1
    I3(6)     OBJ       -132
    I3(6)     R0        189
    I3(6)     R1        27
    I3(6)     R2        160
    I3(6)     R6        14
    I3(6)     R7        11
    I3(6)     R17       1
    I4(6)     OBJ       170
    I4(6)     R0        73
    I4(6)     R1        158
    I4(6)     R2        -57
    I4(6)     R4        8
    I4(6)     R8        14
    I4(6)     R17       1
    I5(7)     OBJ       -182
    I5(7)     R0        -164
    I5(7)     R1        71
    I5(7)     R2        -2
    I5(7)     R3        19
    I5(7)     R4        3
    I5(7)     R5        8
    I5(7)     R17       1
    MARKER    'MARKER'                 'INTEND'
    C6(10)    OBJ       -5
    C6(10)    R0        -3
    C6(10)    R1        -4
    C6(10)    R2        -7
    C6(10)    R3        2
    C6(10)    R5        2
    C6(10)    R6        3
    C6(10)    R7        11
    C6(10)    R10       8
    C6(10)    R14       2
    C6(10)    R15       7
    C7(10)    OBJ       -7
    C7(10)    R0        -2
    C7(10)    R1        -7
    C7(10)    R2        1
    C7(10)    R3        2
    C7(10)    R5        -1
    C7(10)    R7        12
    C7(10)    R9        2
    C7(10)    R10       12
    C7(10)    R15       12
    C7(10)    R16       8
    C8(12)    OBJ       6
    C8(12)    R0        6
    C8(12)    R1        -5
    C8(12)    R2        -5
    C8(12)    R3        3
    C8(12)    R5        16
    C8(12)    R7        3
    C8(12)    R8        18
    C8(12)    R10       4
    C8(12)    R11       3
    C8(12)    R13       13
    C8(12)    R14       12
    C8(12)    R16       12
    C9(12)    OBJ       7
    C9(12)    R0        -2
    C9(12)    R1        8
    C9(12)    R2        -2
    C9(12)    R5        11
    C9(12)    R6        12
    C9(12)    R8        8
    C9(12)    R9        4
    C9(12)    R11       7
    C9(12)    R12       14
    C9(12)    R13       -1
    C9(12)    R14       8
    C9(12)    R16       12
    C10(13)   OBJ       -1
    C10(13)   R0        2
    C10(13)   R1        -6
    C10(13)   R2        9
    C10(13)   R3        1
    C10(13)   R5        11
    C10(13)   R6        17
    C10(13)   R7        16
    C10(13)   R8        3
    C10(13)   R11       6
    C10(13)   R13       6
    C10(13)   R14       4
    C10(13)   R15       1
    C10(13)   R16       9
    C11(8)    OBJ       -3
    C11(8)    R0        9
    C11(8)    R1        -2
    C11(8)    R2        -6
    C11(8)    R3        14
    C11(8)    R5        15
    C11(8)    R8        19
    C11(8)    R10       3
    C11(8)    R16       18
    C12(11)   OBJ       -9
    C12(11)   R0        -10
    C12(11)   R1        -2
    C12(11)   R2        -6
    C12(11)   R5        11
    C12(11)   R6        5
    C12(11)   R8        12
    C12(11)   R11       3
    C12(11)   R12       17
    C12(11)   R13       11
    C12(11)   R15       1
    C12(11)   R16       15
    C13(11)   OBJ       -4
    C13(11)   R0        -2
    C13(11)   R1        9
    C13(11)   R2        5
    C13(11)   R4        17
    C13(11)   R5        4
    C13(11)   R8        17
    C13(11)   R9        6
    C13(11)   R11       11
    C13(11)   R12       3
    C13(11)   R13       18
    C13(11)   R14       2
    C14(10)   OBJ       -8
    C14(10)   R0        5
    C14(10)   R1        2
    C14(10)   R2        -9
    C14(10)   R6        13
    C14(10)   R7        10
    C14(10)   R10       17
    C14(10)   R11       11
    C14(10)   R12       14
    C14(10)   R14       7
    C14(10)   R16       4
    C15(1)    R3        1
    C16(1)    R4        1
    C17(1)    R5        1
    C18(1)    R6        1
    C19(1)    R7        1
    C20(1)    R8        1
    C21(1)    R9        1
    C22(1)    R10       1
    C23(1)    R11       1
    C24(1)    R12       1
    C25(1)    R13       1
    C26(1)    R14       1
    C27(1)    R15       1
    C28(1)    R16       1
    C29(1)    R17       1
RHS
    RHS1      R0        -4.0360809731922672e+02
    RHS1      R1        -9.4183543966929392e+01
    RHS1      R2        -1.1394680442123554e+02
    RHS1      R3        73
    RHS1      R4        86
    RHS1      R5        71
    RHS1      R6        59
    RHS1      R7        92
    RHS1      R8        76
    RHS1      R9        74
    RHS1      R10       73
    RHS1      R11       94
    RHS1      R12       96
    RHS1      R13       89
    RHS1      R14       86
    RHS1      R15       85
    RHS1      R16       58
    RHS1      R17       2
BOUNDS
 UP BND1      I0(7)     1
 UP BND1      I1(5)     1
 UP BND1      I2(7)     1
 UP BND1      I3(6)     1
 UP BND1      I4(6)     1
 UP BND1      I5(7)     1
ENDATA
